NAME          
ROWS
 N  OBJ
 L  c1
 L  c2
 L  c3
COLUMNS
    MARKER    'MARKER'                 'INTORG'
    x[1]      c1        848
    x[1]      c2        635
    x[1]      c3        927
    x[1]      OBJ       -727
    x[2]      c1        284
    x[2]      c2        103
    x[2]      c3        959
    x[2]      OBJ       -494
    x[3]      c1        508
    x[3]      c2        713
    x[3]      c3        216
    x[3]      OBJ       -299
    x[4]      c1        44
    x[4]      c2        113
    x[4]      c3        558
    x[4]      OBJ       -891
    x[5]      c1        51
    x[5]      c2        882
    x[5]      c3        541
    x[5]      OBJ       -850
    x[6]      c1        293
    x[6]      c2        892
    x[6]      c3        988
    x[6]      OBJ       -295
    x[7]      c1        604
    x[7]      c2        494
    x[7]      c3        12
    x[7]      OBJ       -557
    x[8]      c1        990
    x[8]      c2        881
    x[8]      c3        571
    x[8]      OBJ       -14
    x[9]      c1        630
    x[9]      c2        635
    x[9]      c3        374
    x[9]      OBJ       -541
    x[10]     c1        285
    x[10]     c2        660
    x[10]     c3        585
    x[10]     OBJ       -777
    x[11]     c1        543
    x[11]     c2        31
    x[11]     c3        527
    x[11]     OBJ       -591
    x[12]     c1        694
    x[12]     c2        961
    x[12]     c3        835
    x[12]     OBJ       -466
    x[13]     c1        984
    x[13]     c2        903
    x[13]     c3        88
    x[13]     OBJ       -362
    x[14]     c1        297
    x[14]     c2        582
    x[14]     c3        921
    x[14]     OBJ       -938
    x[15]     c1        407
    x[15]     c2        526
    x[15]     c3        505
    x[15]     OBJ       -232
    x[16]     c1        141
    x[16]     c2        817
    x[16]     c3        964
    x[16]     OBJ       -747
    x[17]     c1        382
    x[17]     c2        80
    x[17]     c3        149
    x[17]     OBJ       -859
    x[18]     c1        565
    x[18]     c2        281
    x[18]     c3        453
    x[18]     OBJ       -437
    x[19]     c1        578
    x[19]     c2        988
    x[19]     c3        772
    x[19]     OBJ       -867
    x[20]     c1        235
    x[20]     c2        589
    x[20]     c3        726
    x[20]     OBJ       -965
    x[21]     c1        255
    x[21]     c2        171
    x[21]     c3        827
    x[21]     OBJ       -898
    x[22]     c1        644
    x[22]     c2        922
    x[22]     c3        401
    x[22]     OBJ       -102
    x[23]     c1        655
    x[23]     c2        651
    x[23]     c3        31
    x[23]     OBJ       -740
    x[24]     c1        704
    x[24]     c2        824
    x[24]     c3        51
    x[24]     OBJ       -881
    x[25]     c1        675
    x[25]     c2        395
    x[25]     c3        449
    x[25]     OBJ       -751
    x[26]     c1        534
    x[26]     c2        462
    x[26]     c3        658
    x[26]     OBJ       -298
    x[27]     c1        21
    x[27]     c2        143
    x[27]     c3        693
    x[27]     OBJ       -486
    x[28]     c1        96
    x[28]     c2        747
    x[28]     c3        240
    x[28]     OBJ       -918
    x[29]     c1        200
    x[29]     c2        395
    x[29]     c3        203
    x[29]     OBJ       -553
    x[30]     c1        320
    x[30]     c2        944
    x[30]     c3        938
    x[30]     OBJ       -31
    x[31]     c1        360
    x[31]     c2        664
    x[31]     c3        619
    x[31]     OBJ       -747
    x[32]     c1        342
    x[32]     c2        972
    x[32]     c3        507
    x[32]     OBJ       -708
    x[33]     c1        397
    x[33]     c2        419
    x[33]     c3        340
    x[33]     OBJ       -391
    x[34]     c1        286
    x[34]     c2        683
    x[34]     c3        207
    x[34]     OBJ       -92
    x[35]     c1        480
    x[35]     c2        395
    x[35]     c3        545
    x[35]     OBJ       -346
    x[36]     c1        162
    x[36]     c2        306
    x[36]     c3        473
    x[36]     OBJ       -937
    x[37]     c1        961
    x[37]     c2        899
    x[37]     c3        506
    x[37]     OBJ       -319
    x[38]     c1        690
    x[38]     c2        299
    x[38]     c3        171
    x[38]     OBJ       -154
    x[39]     c1        483
    x[39]     c2        752
    x[39]     c3        358
    x[39]     OBJ       -953
    x[40]     c1        153
    x[40]     c2        199
    x[40]     c3        532
    x[40]     OBJ       -994
    x[41]     c1        903
    x[41]     c2        840
    x[41]     c3        917
    x[41]     OBJ       -836
    x[42]     c1        146
    x[42]     c2        292
    x[42]     c3        108
    x[42]     OBJ       -294
    x[43]     c1        705
    x[43]     c2        361
    x[43]     c3        805
    x[43]     OBJ       -343
    x[44]     c1        388
    x[44]     c2        109
    x[44]     c3        611
    x[44]     OBJ       -774
    x[45]     c1        64
    x[45]     c2        183
    x[45]     c3        115
    x[45]     OBJ       -495
RHS
    rhs       c1        9994
    rhs       c2        12396
    rhs       c3        11488
RANGES
BOUNDS
 BV bounds    x[1]
 BV bounds    x[2]
 BV bounds    x[3]
 BV bounds    x[4]
 BV bounds    x[5]
 BV bounds    x[6]
 BV bounds    x[7]
 BV bounds    x[8]
 BV bounds    x[9]
 BV bounds    x[10]
 BV bounds    x[11]
 BV bounds    x[12]
 BV bounds    x[13]
 BV bounds    x[14]
 BV bounds    x[15]
 BV bounds    x[16]
 BV bounds    x[17]
 BV bounds    x[18]
 BV bounds    x[19]
 BV bounds    x[20]
 BV bounds    x[21]
 BV bounds    x[22]
 BV bounds    x[23]
 BV bounds    x[24]
 BV bounds    x[25]
 BV bounds    x[26]
 BV bounds    x[27]
 BV bounds    x[28]
 BV bounds    x[29]
 BV bounds    x[30]
 BV bounds    x[31]
 BV bounds    x[32]
 BV bounds    x[33]
 BV bounds    x[34]
 BV bounds    x[35]
 BV bounds    x[36]
 BV bounds    x[37]
 BV bounds    x[38]
 BV bounds    x[39]
 BV bounds    x[40]
 BV bounds    x[41]
 BV bounds    x[42]
 BV bounds    x[43]
 BV bounds    x[44]
 BV bounds    x[45]
ENDATA
